20	5	2	0
0	1	20	7	19	12	13	14	1	10	8	4	20	11	18	3	17	9	2	16	5	15	6	[0 0 0 0 0]	[0 0 0 0 0]	[0 0 0 0 0]	[0 0 0 0 0]	[0 0 0 0 0]	[0 0 0 0 0]	[0 0 0 0 0]	[0 0 0 0 0]	[0 0 0 0 0]	[0 0 0 0 0]	[0 0 0 0 0]	[0 0 0 0 0]	[0 0 0 0 0]	[0 0 0 0 0]	[0 0 0 0 0]	[0 0 0 0 0]	[0 0 0 0 0]	[0 0 0 0 0]	[0 0 0 0 0]	[0 0 0 0 0]
1	5	2	21	10	[6 3 7 5 10]	[1 10 8 6 15 0 1 0 -1 2 11 2 0 -5 -4 3 0 8 4 0 0 26 21 -5 3]
2	5	4	21	18	12	11	[2 7 3 8 1]	[0 6 3 6 4 3 4 0 -6 12 7 -1 3 5 0 21 21 18 13 20 1 2 2 3 3]	[1 1 5 5 0 15 -4 -2 -5 -1 6 3 2 4 -2 -6 -3 8 0 -6 2 0 3 3 0]	[0 0 3 4 0 -3 1 5 8 8 8 -1 -2 1 -2 0 18 9 17 -5 3 0 0 0 0]
3	5	3	14	19	21	[3 -4 12 7 4 19 1 4 7 3 -4 0 10 6 6 0 0 -3 14 0 1 0 3 0 2]	[6 -3 -4 13 -2 13 -4 15 13 -1 0 7 15 8 14 3 2 0 1 6 0 2 0 3 0]	[5 7 5 6 1]
4	5	4	17	21	18	16	[6 2 2 0 0 -3 -4 6 -7 22 0 2 0 2 2 11 13 1 14 4 2 -2 -2 9 -1]	[2 8 5 6 4]	[5 1 0 0 1 5 -7 2 -3 23 2 -3 14 10 11 14 12 13 8 6 7 -2 1 -3 0]	[2 4 5 1 1 0 7 24 8 7 0 10 14 -2 0 2 6 -1 1 0 10 2 1 2 -2]
5	5	2	21	15	[1 4 4 8 4]	[2 2 3 3 2 0 2 4 8 -1 -1 10 -1 11 0 -1 -6 2 -2 17 8 12 0 -3 5]
6	5	3	21	18	13	[10 9 4 9 5]	[19 24 1 2 12 1 23 19 17 -8 2 10 0 0 11 -4 2 -5 -1 6 8 -4 5 11 0]	[-9 8 10 -2 14 -1 25 -3 13 18 12 12 0 12 2 24 -8 -1 4 -8 7 -2 12 11 11]
7	5	3	20	21	16	[14 6 -1 -3 16 5 -5 6 7 19 12 0 6 12 7 9 16 8 -3 3 5 0 6 2 1]	[7 8 4 6 2]	[13 17 9 -2 11 19 3 7 9 -3 5 0 3 -2 3 -2 2 12 -3 6 4 0 4 5 2]
8	5	3	14	21	19	[-3 12 -8 -7 4 12 1 14 7 -2 16 0 15 9 9 5 14 8 2 19 30 18 15 24 21]	[9 5 7 7 10]	[-7 2 24 15 -4 12 5 -4 -1 -2 16 -6 -5 7 13 17 18 5 -4 18 5 2 6 22 -7]
9	5	3	18	12	21	[0 6 10 6 5 7 1 5 11 4 12 3 0 4 1 30 20 6 25 -2 4 -2 2 6 11]	[8 9 0 3 8 7 6 4 13 0 5 -3 8 3 10 -1 23 3 29 -3 1 0 -3 7 -2]	[4 5 4 10 4]
10	5	4	18	1	21	19	[-1 -1 11 15 -8 0 5 4 0 1 2 0 12 9 0 5 5 2 3 -1 -2 14 17 6 1]	[-21 -26 -14 -11 -5 -19 -12 -28 -27 -19 -23 -26 -5 -21 -30 -19 -29 -28 -6 -25 -8 -14 -17 -12 -15]	[9 2 5 3 6]	[11 18 23 16 14 -1 5 6 5 0 1 -2 -2 0 11 5 0 6 -1 7 16 11 9 -3 10]
11	5	4	21	19	16	17	[4 1 2 4 2]	[0 12 9 -3 10 2 2 0 3 0 3 6 4 5 1 6 3 10 -3 3 6 5 0 -1 6]	[2 10 6 6 -2 2 2 0 0 2 5 4 6 1 2 8 3 9 -1 6 0 2 2 6 -1]	[0 12 9 5 7 1 3 0 1 0 3 1 5 -1 0 0 7 -3 0 0 2 1 0 3 4]
12	5	3	21	20	16	[5 6 6 10 7]	[11 10 9 7 4 3 14 11 5 12 -4 13 9 -4 1 14 1 25 27 0 4 17 8 15 9]	[1 13 14 5 14 4 15 -4 -2 0 8 9 9 10 4 24 13 -5 21 9 0 1 11 2 3]
13	5	3	21	15	16	[1 1 8 9 5]	[0 0 0 0 0 1 3 3 3 0 0 8 2 -5 10 -6 1 3 24 20 -4 3 4 12 -2]	[2 1 1 0 1 0 2 2 0 2 12 -4 1 21 17 15 -7 -2 -6 13 0 9 -1 10 11]
14	5	3	13	21	12	[4 14 0 -7 13 4 0 5 0 -1 7 -2 -2 19 0 12 -5 -8 -2 8 27 21 0 16 6]	[8 2 8 9 9]	[-6 18 5 3 0 4 4 -1 5 -1 4 0 -3 9 8 -8 17 -1 9 -3 24 8 -7 -3 22]
15	5	2	21	5	[5 2 9 8 6]	[-13 0 -11 -8 -2 -1 -6 -7 -9 -5 -2 -14 -3 -6 -8 -13 -7 -1 -4 -8 0 -5 -12 -13 -13]
16	5	2	21	7	[10 6 2 3 8]	[-9 -17 -14 -16 -7 -15 -11 -12 -7 -3 -17 -8 -14 -5 -5 -8 -3 -3 -9 -10 -5 -10 -10 -14 -4]
17	5	2	4	21	[-2 -15 -1 -1 -6 -4 -9 -8 -14 -11 -11 -11 -11 -8 -11 -13 -8 -13 -4 -5 -13 -5 -7 -10 -3]	[10 8 6 3 1]
18	5	2	6	21	[-4 -3 -8 -11 -13 -1 -20 -8 -14 -1 -6 -8 -7 -6 -10 -8 -5 -3 -16 0 -12 0 -10 -2 -14]	[3 3 4 4 9]
19	5	2	1	21	[-30 -20 -38 -10 -41 -8 -25 -11 -23 -7 -27 -40 -40 -34 -17 -19 -15 -26 -29 -29 -24 -39 -22 -8 -21]	[8 5 7 6 6]
20	5	1	21	[1 9 6 5 8]
21	1	0
0	1	0	0	0	0	0	0	0	0
1	1	6	5	5	4	1	3	4	5
	2	3	5	5	4	1	3	4	5
	3	7	5	5	4	1	3	4	5
	4	5	5	5	4	1	3	4	5
	5	10	5	5	4	1	3	4	5
2	1	2	2	3	3	4	2	1	3
	2	7	2	3	3	4	2	1	3
	3	3	2	3	3	4	2	1	3
	4	8	2	3	3	4	2	1	3
	5	1	2	3	3	4	2	1	3
3	1	5	5	5	5	3	1	2	5
	2	7	5	5	5	3	1	2	5
	3	5	5	5	5	3	1	2	5
	4	6	5	5	5	3	1	2	5
	5	1	5	5	5	3	1	2	5
4	1	2	5	2	5	3	2	3	2
	2	8	5	2	5	3	2	3	2
	3	5	5	2	5	3	2	3	2
	4	6	5	2	5	3	2	3	2
	5	4	5	2	5	3	2	3	2
5	1	1	4	4	3	4	4	3	3
	2	4	4	4	3	4	4	3	3
	3	4	4	4	3	4	4	3	3
	4	8	4	4	3	4	4	3	3
	5	4	4	4	3	4	4	3	3
6	1	10	1	4	2	1	3	5	5
	2	9	1	4	2	1	3	5	5
	3	4	1	4	2	1	3	5	5
	4	9	1	4	2	1	3	5	5
	5	5	1	4	2	1	3	5	5
7	1	7	3	4	3	2	1	4	3
	2	8	3	4	3	2	1	4	3
	3	4	3	4	3	2	1	4	3
	4	6	3	4	3	2	1	4	3
	5	2	3	4	3	2	1	4	3
8	1	9	1	4	3	2	1	2	4
	2	5	1	4	3	2	1	2	4
	3	7	1	4	3	2	1	2	4
	4	7	1	4	3	2	1	2	4
	5	10	1	4	3	2	1	2	4
9	1	4	2	3	1	1	5	5	3
	2	5	2	3	1	1	5	5	3
	3	4	2	3	1	1	5	5	3
	4	10	2	3	1	1	5	5	3
	5	4	2	3	1	1	5	5	3
10	1	9	3	3	3	4	1	4	5
	2	2	3	3	3	4	1	4	5
	3	5	3	3	3	4	1	4	5
	4	3	3	3	3	4	1	4	5
	5	6	3	3	3	4	1	4	5
11	1	4	1	3	3	2	1	4	5
	2	1	1	3	3	2	1	4	5
	3	2	1	3	3	2	1	4	5
	4	4	1	3	3	2	1	4	5
	5	2	1	3	3	2	1	4	5
12	1	5	2	1	1	2	3	3	1
	2	6	2	1	1	2	3	3	1
	3	6	2	1	1	2	3	3	1
	4	10	2	1	1	2	3	3	1
	5	7	2	1	1	2	3	3	1
13	1	1	5	1	3	2	3	2	5
	2	1	5	1	3	2	3	2	5
	3	8	5	1	3	2	3	2	5
	4	9	5	1	3	2	3	2	5
	5	5	5	1	3	2	3	2	5
14	1	8	1	1	3	4	1	4	2
	2	2	1	1	3	4	1	4	2
	3	8	1	1	3	4	1	4	2
	4	9	1	1	3	4	1	4	2
	5	9	1	1	3	4	1	4	2
15	1	5	2	1	4	2	2	5	3
	2	2	2	1	4	2	2	5	3
	3	9	2	1	4	2	2	5	3
	4	8	2	1	4	2	2	5	3
	5	6	2	1	4	2	2	5	3
16	1	10	5	5	2	2	5	3	4
	2	6	5	5	2	2	5	3	4
	3	2	5	5	2	2	5	3	4
	4	3	5	5	2	2	5	3	4
	5	8	5	5	2	2	5	3	4
17	1	10	1	2	3	1	5	2	5
	2	8	1	2	3	1	5	2	5
	3	6	1	2	3	1	5	2	5
	4	3	1	2	3	1	5	2	5
	5	1	1	2	3	1	5	2	5
18	1	3	5	5	1	2	1	2	5
	2	3	5	5	1	2	1	2	5
	3	4	5	5	1	2	1	2	5
	4	4	5	5	1	2	1	2	5
	5	9	5	5	1	2	1	2	5
19	1	8	1	2	3	5	2	1	5
	2	5	1	2	3	5	2	1	5
	3	7	1	2	3	5	2	1	5
	4	6	1	2	3	5	2	1	5
	5	6	1	2	3	5	2	1	5
20	1	1	1	2	1	2	2	4	3
	2	9	1	2	1	2	2	4	3
	3	6	1	2	1	2	2	4	3
	4	5	1	2	1	2	2	4	3
	5	8	1	2	1	2	2	4	3
21	1	0	0	0	0	0	0	0	0
30	33	31	27	27	63	139
